Code 3034
Dimension, Median 
   128       16     
 Facility, Client, Transportation Cost
     1        1           1
     1        2           0
     1        3           4
     1        5           4
     1        9           3
     1       17           0
     1       33           1
     1       65           3
     2        1           1
     2        2           1
     2        4           0
     2        6           3
     2       10           1
     2       18           4
     2       34           0
     2       66           1
     3        1           4
     3        3           4
     3        4           2
     3        7           0
     3       11           1
     3       19           2
     3       35           3
     3       67           4
     4        2           3
     4        3           4
     4        4           3
     4        8           2
     4       12           3
     4       20           1
     4       36           2
     4       68           3
     5        1           4
     5        5           0
     5        6           1
     5        7           3
     5       13           4
     5       21           4
     5       37           1
     5       69           0
     6        2           1
     6        5           2
     6        6           2
     6        8           0
     6       14           4
     6       22           2
     6       38           4
     6       70           4
     7        3           0
     7        5           4
     7        7           2
     7        8           3
     7       15           3
     7       23           1
     7       39           4
     7       71           3
     8        4           1
     8        6           1
     8        7           1
     8        8           4
     8       16           2
     8       24           0
     8       40           2
     8       72           4
     9        1           3
     9        9           1
     9       10           0
     9       11           2
     9       13           3
     9       25           1
     9       41           2
     9       73           4
    10        2           0
    10        9           1
    10       10           2
    10       12           3
    10       14           4
    10       26           3
    10       42           1
    10       74           4
    11        3           4
    11        9           0
    11       11           4
    11       12           3
    11       15           2
    11       27           2
    11       43           2
    11       75           1
    12        4           1
    12       10           0
    12       11           0
    12       12           0
    12       16           4
    12       28           1
    12       44           0
    12       76           0
    13        5           1
    13        9           3
    13       13           2
    13       14           1
    13       15           4
    13       29           1
    13       45           2
    13       77           1
    14        6           1
    14       10           4
    14       13           3
    14       14           0
    14       16           2
    14       30           1
    14       46           2
    14       78           3
    15        7           3
    15       11           1
    15       13           4
    15       15           3
    15       16           4
    15       31           2
    15       47           2
    15       79           3
    16        8           4
    16       12           2
    16       14           2
    16       15           1
    16       16           0
    16       32           1
    16       48           3
    16       80           3
    17        1           0
    17       17           2
    17       18           4
    17       19           4
    17       21           1
    17       25           0
    17       49           4
    17       81           1
    18        2           2
    18       17           2
    18       18           3
    18       20           0
    18       22           1
    18       26           4
    18       50           1
    18       82           3
    19        3           4
    19       17           2
    19       19           3
    19       20           3
    19       23           4
    19       27           2
    19       51           3
    19       83           4
    20        4           3
    20       18           3
    20       19           2
    20       20           0
    20       24           3
    20       28           0
    20       52           2
    20       84           1
    21        5           2
    21       17           3
    21       21           3
    21       22           3
    21       23           4
    21       29           1
    21       53           3
    21       85           1
    22        6           1
    22       18           2
    22       21           3
    22       22           2
    22       24           1
    22       30           2
    22       54           1
    22       86           3
    23        7           0
    23       19           1
    23       21           1
    23       23           0
    23       24           3
    23       31           1
    23       55           4
    23       87           4
    24        8           0
    24       20           1
    24       22           4
    24       23           0
    24       24           1
    24       32           3
    24       56           3
    24       88           1
    25        9           4
    25       17           2
    25       25           1
    25       26           2
    25       27           4
    25       29           0
    25       57           0
    25       89           2
    26       10           2
    26       18           1
    26       25           1
    26       26           1
    26       28           3
    26       30           3
    26       58           1
    26       90           3
    27       11           2
    27       19           3
    27       25           4
    27       27           1
    27       28           4
    27       31           4
    27       59           4
    27       91           0
    28       12           1
    28       20           1
    28       26           4
    28       27           3
    28       28           1
    28       32           2
    28       60           2
    28       92           2
    29       13           1
    29       21           3
    29       25           0
    29       29           1
    29       30           3
    29       31           0
    29       61           1
    29       93           3
    30       14           4
    30       22           4
    30       26           4
    30       29           1
    30       30           3
    30       32           4
    30       62           2
    30       94           4
    31       15           0
    31       23           2
    31       27           4
    31       29           3
    31       31           3
    31       32           3
    31       63           4
    31       95           4
    32       16           0
    32       24           0
    32       28           1
    32       30           1
    32       31           4
    32       32           1
    32       64           2
    32       96           3
    33        1           1
    33       33           4
    33       34           0
    33       35           4
    33       37           2
    33       41           1
    33       49           2
    33       97           3
    34        2           0
    34       33           4
    34       34           0
    34       36           3
    34       38           1
    34       42           2
    34       50           1
    34       98           1
    35        3           0
    35       33           4
    35       35           4
    35       36           3
    35       39           4
    35       43           4
    35       51           0
    35       99           3
    36        4           0
    36       34           1
    36       35           2
    36       36           2
    36       40           0
    36       44           3
    36       52           0
    36      100           4
    37        5           0
    37       33           0
    37       37           4
    37       38           0
    37       39           4
    37       45           3
    37       53           1
    37      101           0
    38        6           0
    38       34           3
    38       37           2
    38       38           1
    38       40           3
    38       46           3
    38       54           2
    38      102           4
    39        7           4
    39       35           2
    39       37           1
    39       39           1
    39       40           2
    39       47           3
    39       55           2
    39      103           0
    40        8           2
    40       36           4
    40       38           2
    40       39           0
    40       40           4
    40       48           1
    40       56           1
    40      104           1
    41        9           1
    41       33           2
    41       41           0
    41       42           1
    41       43           3
    41       45           3
    41       57           4
    41      105           4
    42       10           3
    42       34           2
    42       41           0
    42       42           1
    42       44           2
    42       46           0
    42       58           0
    42      106           3
    43       11           2
    43       35           2
    43       41           2
    43       43           2
    43       44           4
    43       47           3
    43       59           1
    43      107           1
    44       12           0
    44       36           2
    44       42           3
    44       43           2
    44       44           1
    44       48           4
    44       60           3
    44      108           1
    45       13           2
    45       37           1
    45       41           4
    45       45           0
    45       46           1
    45       47           0
    45       61           1
    45      109           2
    46       14           3
    46       38           3
    46       42           2
    46       45           0
    46       46           0
    46       48           0
    46       62           4
    46      110           1
    47       15           3
    47       39           3
    47       43           2
    47       45           1
    47       47           2
    47       48           2
    47       63           4
    47      111           4
    48       16           4
    48       40           3
    48       44           0
    48       46           1
    48       47           0
    48       48           3
    48       64           0
    48      112           0
    49       17           0
    49       33           3
    49       49           4
    49       50           4
    49       51           0
    49       53           3
    49       57           1
    49      113           4
    50       18           0
    50       34           4
    50       49           3
    50       50           3
    50       52           4
    50       54           2
    50       58           0
    50      114           0
    51       19           2
    51       35           4
    51       49           3
    51       51           2
    51       52           0
    51       55           3
    51       59           4
    51      115           0
    52       20           0
    52       36           1
    52       50           3
    52       51           2
    52       52           1
    52       56           3
    52       60           4
    52      116           2
    53       21           2
    53       37           3
    53       49           1
    53       53           4
    53       54           2
    53       55           0
    53       61           0
    53      117           3
    54       22           4
    54       38           1
    54       50           3
    54       53           1
    54       54           1
    54       56           4
    54       62           2
    54      118           0
    55       23           2
    55       39           2
    55       51           1
    55       53           3
    55       55           0
    55       56           0
    55       63           4
    55      119           0
    56       24           3
    56       40           2
    56       52           3
    56       54           4
    56       55           3
    56       56           3
    56       64           1
    56      120           4
    57       25           2
    57       41           0
    57       49           0
    57       57           0
    57       58           0
    57       59           1
    57       61           2
    57      121           1
    58       26           4
    58       42           3
    58       50           2
    58       57           4
    58       58           3
    58       60           2
    58       62           4
    58      122           1
    59       27           4
    59       43           1
    59       51           3
    59       57           4
    59       59           3
    59       60           2
    59       63           4
    59      123           1
    60       28           2
    60       44           0
    60       52           4
    60       58           1
    60       59           4
    60       60           2
    60       64           2
    60      124           2
    61       29           3
    61       45           2
    61       53           3
    61       57           4
    61       61           4
    61       62           1
    61       63           2
    61      125           3
    62       30           1
    62       46           0
    62       54           1
    62       58           4
    62       61           0
    62       62           3
    62       64           2
    62      126           2
    63       31           3
    63       47           1
    63       55           1
    63       59           4
    63       61           3
    63       63           4
    63       64           4
    63      127           1
    64       32           4
    64       48           4
    64       56           2
    64       60           3
    64       62           4
    64       63           4
    64       64           1
    64      128           4
    65        1           3
    65       65           3
    65       66           1
    65       67           3
    65       69           2
    65       73           0
    65       81           3
    65       97           1
    66        2           0
    66       65           0
    66       66           1
    66       68           2
    66       70           4
    66       74           0
    66       82           0
    66       98           4
    67        3           3
    67       65           2
    67       67           0
    67       68           3
    67       71           1
    67       75           2
    67       83           4
    67       99           3
    68        4           0
    68       66           0
    68       67           4
    68       68           0
    68       72           0
    68       76           3
    68       84           3
    68      100           3
    69        5           0
    69       65           3
    69       69           0
    69       70           4
    69       71           4
    69       77           0
    69       85           3
    69      101           1
    70        6           2
    70       66           1
    70       69           2
    70       70           0
    70       72           4
    70       78           3
    70       86           1
    70      102           2
    71        7           4
    71       67           4
    71       69           4
    71       71           1
    71       72           1
    71       79           1
    71       87           2
    71      103           1
    72        8           1
    72       68           3
    72       70           2
    72       71           1
    72       72           1
    72       80           1
    72       88           4
    72      104           4
    73        9           4
    73       65           0
    73       73           2
    73       74           4
    73       75           2
    73       77           2
    73       89           4
    73      105           4
    74       10           2
    74       66           1
    74       73           4
    74       74           1
    74       76           4
    74       78           3
    74       90           3
    74      106           0
    75       11           4
    75       67           3
    75       73           1
    75       75           4
    75       76           3
    75       79           2
    75       91           1
    75      107           0
    76       12           2
    76       68           2
    76       74           2
    76       75           4
    76       76           1
    76       80           1
    76       92           2
    76      108           4
    77       13           3
    77       69           3
    77       73           0
    77       77           2
    77       78           0
    77       79           1
    77       93           2
    77      109           1
    78       14           2
    78       70           0
    78       74           2
    78       77           1
    78       78           1
    78       80           1
    78       94           2
    78      110           2
    79       15           0
    79       71           0
    79       75           1
    79       77           1
    79       79           1
    79       80           3
    79       95           2
    79      111           4
    80       16           1
    80       72           3
    80       76           3
    80       78           3
    80       79           0
    80       80           2
    80       96           3
    80      112           1
    81       17           1
    81       65           2
    81       81           2
    81       82           3
    81       83           0
    81       85           3
    81       89           1
    81      113           4
    82       18           1
    82       66           4
    82       81           4
    82       82           1
    82       84           1
    82       86           1
    82       90           0
    82      114           0
    83       19           1
    83       67           4
    83       81           1
    83       83           4
    83       84           0
    83       87           1
    83       91           1
    83      115           1
    84       20           3
    84       68           2
    84       82           1
    84       83           3
    84       84           3
    84       88           0
    84       92           3
    84      116           4
    85       21           3
    85       69           1
    85       81           1
    85       85           2
    85       86           2
    85       87           4
    85       93           0
    85      117           1
    86       22           3
    86       70           4
    86       82           3
    86       85           4
    86       86           0
    86       88           4
    86       94           0
    86      118           4
    87       23           2
    87       71           2
    87       83           4
    87       85           1
    87       87           3
    87       88           3
    87       95           3
    87      119           2
    88       24           2
    88       72           2
    88       84           0
    88       86           0
    88       87           0
    88       88           0
    88       96           0
    88      120           1
    89       25           2
    89       73           4
    89       81           1
    89       89           3
    89       90           0
    89       91           2
    89       93           4
    89      121           0
    90       26           3
    90       74           3
    90       82           3
    90       89           4
    90       90           2
    90       92           0
    90       94           3
    90      122           2
    91       27           3
    91       75           4
    91       83           2
    91       89           0
    91       91           4
    91       92           2
    91       95           2
    91      123           0
    92       28           3
    92       76           1
    92       84           4
    92       90           0
    92       91           1
    92       92           2
    92       96           0
    92      124           3
    93       29           4
    93       77           1
    93       85           0
    93       89           4
    93       93           0
    93       94           2
    93       95           0
    93      125           4
    94       30           2
    94       78           3
    94       86           2
    94       90           0
    94       93           0
    94       94           1
    94       96           1
    94      126           0
    95       31           1
    95       79           0
    95       87           4
    95       91           0
    95       93           1
    95       95           4
    95       96           3
    95      127           2
    96       32           3
    96       80           2
    96       88           2
    96       92           4
    96       94           4
    96       95           0
    96       96           3
    96      128           4
    97       33           4
    97       65           0
    97       97           4
    97       98           4
    97       99           1
    97      101           4
    97      105           3
    97      113           0
    98       34           2
    98       66           4
    98       97           0
    98       98           3
    98      100           0
    98      102           3
    98      106           1
    98      114           4
    99       35           4
    99       67           1
    99       97           2
    99       99           3
    99      100           2
    99      103           0
    99      107           1
    99      115           3
   100       36           1
   100       68           2
   100       98           2
   100       99           3
   100      100           4
   100      104           4
   100      108           3
   100      116           3
   101       37           4
   101       69           3
   101       97           2
   101      101           2
   101      102           2
   101      103           0
   101      109           1
   101      117           2
   102       38           2
   102       70           2
   102       98           1
   102      101           0
   102      102           0
   102      104           4
   102      110           0
   102      118           1
   103       39           1
   103       71           4
   103       99           0
   103      101           1
   103      103           0
   103      104           2
   103      111           3
   103      119           2
   104       40           4
   104       72           0
   104      100           1
   104      102           4
   104      103           0
   104      104           1
   104      112           0
   104      120           4
   105       41           3
   105       73           3
   105       97           3
   105      105           4
   105      106           2
   105      107           3
   105      109           2
   105      121           2
   106       42           1
   106       74           2
   106       98           1
   106      105           0
   106      106           0
   106      108           1
   106      110           4
   106      122           3
   107       43           1
   107       75           0
   107       99           3
   107      105           0
   107      107           4
   107      108           1
   107      111           1
   107      123           0
   108       44           2
   108       76           4
   108      100           3
   108      106           4
   108      107           4
   108      108           1
   108      112           4
   108      124           2
   109       45           4
   109       77           1
   109      101           0
   109      105           2
   109      109           0
   109      110           0
   109      111           1
   109      125           2
   110       46           4
   110       78           0
   110      102           4
   110      106           0
   110      109           1
   110      110           3
   110      112           2
   110      126           3
   111       47           1
   111       79           3
   111      103           4
   111      107           2
   111      109           4
   111      111           0
   111      112           4
   111      127           2
   112       48           2
   112       80           3
   112      104           3
   112      108           0
   112      110           1
   112      111           2
   112      112           0
   112      128           4
   113       49           4
   113       81           4
   113       97           2
   113      113           0
   113      114           0
   113      115           4
   113      117           0
   113      121           4
   114       50           3
   114       82           2
   114       98           2
   114      113           2
   114      114           3
   114      116           2
   114      118           4
   114      122           4
   115       51           2
   115       83           2
   115       99           0
   115      113           2
   115      115           0
   115      116           3
   115      119           0
   115      123           1
   116       52           0
   116       84           4
   116      100           3
   116      114           1
   116      115           4
   116      116           0
   116      120           1
   116      124           0
   117       53           2
   117       85           1
   117      101           2
   117      113           0
   117      117           4
   117      118           4
   117      119           3
   117      125           2
   118       54           4
   118       86           4
   118      102           0
   118      114           3
   118      117           3
   118      118           1
   118      120           1
   118      126           2
   119       55           2
   119       87           0
   119      103           0
   119      115           4
   119      117           2
   119      119           0
   119      120           4
   119      127           4
   120       56           3
   120       88           2
   120      104           0
   120      116           3
   120      118           0
   120      119           4
   120      120           0
   120      128           3
   121       57           0
   121       89           3
   121      105           1
   121      113           0
   121      121           2
   121      122           3
   121      123           1
   121      125           4
   122       58           1
   122       90           0
   122      106           1
   122      114           4
   122      121           0
   122      122           0
   122      124           2
   122      126           1
   123       59           0
   123       91           1
   123      107           4
   123      115           2
   123      121           2
   123      123           3
   123      124           2
   123      127           3
   124       60           1
   124       92           4
   124      108           4
   124      116           4
   124      122           1
   124      123           2
   124      124           3
   124      128           2
   125       61           3
   125       93           4
   125      109           0
   125      117           0
   125      121           1
   125      125           2
   125      126           3
   125      127           1
   126       62           4
   126       94           4
   126      110           1
   126      118           1
   126      122           0
   126      125           3
   126      126           2
   126      128           3
   127       63           1
   127       95           0
   127      111           0
   127      119           1
   127      123           2
   127      125           2
   127      127           1
   127      128           3
   128       64           3
   128       96           4
   128      112           3
   128      120           0
   128      124           2
   128      126           4
   128      127           1
   128      128           4
